w = 37;
n = 27;
measures = [|12, 37,
|4, 24,
|4, 22,
|5, 14,
|3, 21,
|3, 18,
|3, 17,
|5, 10,
|3, 14,
|4, 10,
|3, 13,
|3, 12,
|3, 11,
|5, 6,
|3, 9,
|3, 8,
|4, 6,
|3, 7,
|4, 5,
|5, 4,
|3, 6,
|4, 4,
|3, 5,
|5, 3,
|3, 4,
|4, 3,
|3, 3,
|];
initial_x = [0, 12, 16, 20, 25, 28, 31, 0, 5, 8, 12, 15, 18, 21, 26, 29, 32, 0, 3, 7, 12, 15, 19, 22, 27, 30, 34];
initial_y = [0, 0, 0, 0, 0, 0, 0, 37, 37, 37, 37, 37, 37, 37, 37, 37, 37, 51, 51, 51, 51, 51, 51, 51, 51, 51, 51];